   61
scf done: -1580.775587
 C    -1.317663     4.937428    -3.960139
 C    -1.063968     5.627838    -2.775237
 C    -0.626193     4.912237    -1.666172
 N    -0.431418     3.578169    -1.685024
 C    -0.677120     2.894885    -2.840709
 C    -1.121283     3.559458    -3.988692
 C    -0.439302     1.439285    -2.777404
 N    -0.044925     0.963721    -1.560358
Ru     0.188791     2.409158    -0.048320
 N    -1.804754     2.402058     0.626590
 C    -2.781619     1.588637     0.176980
 C    -4.090516     1.650327     0.642607
 C    -4.411329     2.597090     1.615151
 C    -3.409683     3.442635     2.084257
 C    -2.110182     3.331231     1.578635
 C    -0.985292     4.180802     2.016925
 N     0.201351     3.952848     1.382183
 C     1.274750     4.691809     1.728369
 C     1.227910     5.681947     2.703686
 C     0.019499     5.921002     3.357691
 C    -1.093929     5.161724     3.008291
 N     2.249326     2.438641    -0.476771
 C     3.031896     1.661965     0.327756
 C     2.317683     0.943509     1.401590
 C     2.952216     0.129980     2.346236
 C     2.199468    -0.513316     3.324926
 C     0.817183    -0.328291     3.339230
 C     0.243633     0.493956     2.375527
 N     0.964281     1.119150     1.422683
 C     4.413078     1.577326     0.122865
 C     5.005574     2.293053    -0.913948
 C     4.198623     3.084629    -1.730899
 C     2.831548     3.126751    -1.479578
 C     0.189323    -0.357171    -1.424765
 C     0.044030    -1.261736    -2.470899
 C    -0.357527    -0.784125    -3.718202
 C    -0.600343     0.578502    -3.868236
 H    -1.662536     5.459895    -4.846580
 H    -1.202075     6.701255    -2.703438
 H    -0.416722     5.408231    -0.725969
 H    -1.316712     3.008503    -4.900708
 H    -2.488453     0.868773    -0.577796
 H    -4.835949     0.969617     0.245846
 H    -5.421956     2.677957     2.002186
 H    -3.643682     4.185245     2.837434
 H     2.191931     4.473793     1.194419
 H     2.122767     6.247183     2.940746
 H    -0.056865     6.683405     4.126204
 H    -2.039000     5.333499     3.509141
 H     4.027273    -0.001357     2.323596
 H     2.684652    -1.145635     4.061454
 H     0.188339    -0.807675     4.081662
 H    -0.825853     0.665407     2.349330
 H     5.025928     0.955776     0.764431
 H     6.076363     2.232048    -1.079454
 H     4.613474     3.660499    -2.551099
 H     2.167768     3.728241    -2.089078
 H     0.498846    -0.684493    -0.439413
 H     0.244644    -2.314575    -2.304362
 H    -0.479826    -1.458078    -4.559944
 H    -0.910436     0.965353    -4.831410
