21
ferrocene Fe(C5H5)2 - GFN1-xTB optimised; Fe-C 2.064-2.066 A (expt ~2.04-2.06)
Fe          -0.00000000000000        0.00000000000000        0.00000000000000
C            1.20502783862742       -0.00000000000039        1.67824076977154
C            0.37270751831745        1.14581076845480        1.67810676815099
C           -0.97416093404767        0.70818965590360        1.67665004741902
C           -0.97416093404758       -0.70818965590433        1.67665004741933
C            0.37270751831741       -1.14581076845545        1.67810676815129
H            2.28407135635251       -0.00000000000059        1.76333829549980
H            0.70629639420756        2.17200044759186        1.76280429757208
H           -1.84707178494710        1.34244887432650        1.76180836180406
H           -1.84707178494682       -1.34244887432748        1.76180836180544
H            0.70629639420740       -2.17200044759254        1.76280429757412
C            0.97416093404758        0.70818965590432       -1.67665004741933
C           -0.37270751831741        1.14581076845546       -1.67810676815129
C           -1.20502783862742        0.00000000000039       -1.67824076977155
C           -0.37270751831745       -1.14581076845479       -1.67810676815099
C            0.97416093404767       -0.70818965590360       -1.67665004741901
H            1.84707178494682        1.34244887432748       -1.76180836180544
H           -0.70629639420740        2.17200044759254       -1.76280429757413
H           -2.28407135635251        0.00000000000059       -1.76333829549981
H           -0.70629639420756       -2.17200044759186       -1.76280429757208
H            1.84707178494710       -1.34244887432650       -1.76180836180405
